p edge 70 69 30
e 1 19
e 2 6
e 2 16
e 3 46
e 3 6
e 4 30
e 4 64
e 4 23
e 5 7
e 6 45
e 7 31
e 7 42
e 7 50
e 8 12
e 9 10
e 9 68
e 10 61
e 11 44
e 12 45
e 13 62
e 14 43
e 14 66
e 15 25
e 16 57
e 17 24
e 17 58
e 18 57
e 18 49
e 19 54
e 20 62
e 21 28
e 21 57
e 22 38
e 22 57
e 23 28
e 24 62
e 25 34
e 25 41
e 26 37
e 26 55
e 26 67
e 26 39
e 26 50
e 27 70
e 29 47
e 29 30
e 30 36
e 32 39
e 33 66
e 33 50
e 33 70
e 35 40
e 35 52
e 35 48
e 36 53
e 36 60
e 39 69
e 41 51
e 41 44
e 43 54
e 44 57
e 48 65
e 49 61
e 50 65
e 50 63
e 56 59
e 56 68
e 56 62
e 58 63
